\ Model shortest_path
\ LP format - for model browsing. Use MPS format to capture full model detail.
Minimize
  1.8 y[1_0,1^0] + 2.545584412271571 y[1_1,1^0]
   + 3.117691453623979 y[1_2,1^0] + 3.6 y[1_3,1^0]
   + 4.024922359499622 y[1_4,1^0] + 1.131370849898476 y[2_0,2^0]
   + 0.8 y[2_0,2^1] + 1.385640646055102 y[2_1,2^0]
   + 1.131370849898476 y[2_1,2^1] + 0.8 y[2_1,2^2] + 1.6 y[2_2,2^0]
   + 1.385640646055102 y[2_2,2^1] + 1.131370849898476 y[2_2,2^2]
   + 0.8 y[2_2,2^3] + 1.272792206135786 y[3_0,3^0] + 0.9 y[3_0,3^1]
   + 1.55884572681199 y[3_1,3^0] + 1.272792206135786 y[3_1,3^1]
   + 0.9 y[3_1,3^2] + 0.4242640687119286 y[4_0,4^0] + 0.3 y[4_0,4^1]
   + 0.1 y[5_0,5^0] + 0.5 y[6_0,6^0] + 0.2 y[7_0,7^0]
Subject To
 UB[1_0,1^0]: x[1_0,1^0] - 4 y[1_0,1^0] <= 0
 UB[1_1,1^0]: x[1_1,1^0] - 4 y[1_1,1^0] <= 0
 UB[1_2,1^0]: x[1_2,1^0] - 4 y[1_2,1^0] <= 0
 UB[1_3,1^0]: x[1_3,1^0] - 4 y[1_3,1^0] <= 0
 UB[1_4,1^0]: x[1_4,1^0] - 4 y[1_4,1^0] <= 0
 UB[2_0,2^0]: x[2_0,2^0] - 2 y[2_0,2^0] <= 0
 UB[2_0,2^1]: x[2_0,2^1] - 2 y[2_0,2^1] <= 0
 UB[2_0,2^2]: x[2_0,2^2] - 2 y[2_0,2^2] <= 0
 UB[2_1,2^0]: x[2_1,2^0] - 2 y[2_1,2^0] <= 0
 UB[2_1,2^1]: x[2_1,2^1] - 2 y[2_1,2^1] <= 0
 UB[2_1,2^2]: x[2_1,2^2] - 2 y[2_1,2^2] <= 0
 UB[2_1,2^3]: x[2_1,2^3] - 2 y[2_1,2^3] <= 0
 UB[2_2,2^0]: x[2_2,2^0] - 2 y[2_2,2^0] <= 0
 UB[2_2,2^1]: x[2_2,2^1] - 2 y[2_2,2^1] <= 0
 UB[2_2,2^2]: x[2_2,2^2] - 2 y[2_2,2^2] <= 0
 UB[2_2,2^3]: x[2_2,2^3] - 2 y[2_2,2^3] <= 0
 UB[2_2,2^4]: x[2_2,2^4] - 2 y[2_2,2^4] <= 0
 UB[3_0,3^0]: x[3_0,3^0] - 2 y[3_0,3^0] <= 0
 UB[3_0,3^1]: x[3_0,3^1] - 2 y[3_0,3^1] <= 0
 UB[3_0,3^2]: x[3_0,3^2] - 2 y[3_0,3^2] <= 0
 UB[3_1,3^0]: x[3_1,3^0] - 2 y[3_1,3^0] <= 0
 UB[3_1,3^1]: x[3_1,3^1] - 2 y[3_1,3^1] <= 0
 UB[3_1,3^2]: x[3_1,3^2] - 2 y[3_1,3^2] <= 0
 UB[3_1,3^3]: x[3_1,3^3] - 2 y[3_1,3^3] <= 0
 UB[4_0,4^0]: x[4_0,4^0] - y[4_0,4^0] <= 0
 UB[4_0,4^1]: x[4_0,4^1] - y[4_0,4^1] <= 0
 UB[4_0,4^2]: x[4_0,4^2] - y[4_0,4^2] <= 0
 UB[5_0,5^0]: x[5_0,5^0] - y[5_0,5^0] <= 0
 UB[5_0,5^1]: x[5_0,5^1] - y[5_0,5^1] <= 0
 UB[6_0,6^0]: x[6_0,6^0] - y[6_0,6^0] <= 0
 UB[6_0,6^1]: x[6_0,6^1] - y[6_0,6^1] <= 0
 UB[7_0,7^0]: x[7_0,7^0] - y[7_0,7^0] <= 0
 UB[7_0,7^1]: x[7_0,7^1] - y[7_0,7^1] <= 0
 netflow[1_0]: x[1_0,1^0] - x[2^0,1_0] - x[3^0,1_0] = 0
 netflow[1_1]: x[1_1,1^0] - x[2^1,1_1] - x[3^1,1_1] = 0
 netflow[1_2]: x[1_2,1^0] - x[2^2,1_2] - x[3^2,1_2] = 0
 netflow[1_3]: x[1_3,1^0] - x[2^3,1_3] - x[3^3,1_3] = 0
 netflow[1_4]: x[1_4,1^0] - x[2^4,1_4] - x[3^3,1_4] = 0
 netflow[1^0]: - x[1_0,1^0] - x[1_1,1^0] - x[1_2,1^0] - x[1_3,1^0]
   - x[1_4,1^0] = -4
 netflow[2_0]: x[2_0,2^0] + x[2_0,2^1] + x[2_0,2^2] - x[4^0,2_0]
   - x[5^0,2_0] = 0
 netflow[2_1]: x[2_1,2^0] + x[2_1,2^1] + x[2_1,2^2] + x[2_1,2^3]
   - x[4^1,2_1] - x[5^1,2_1] = 0
 netflow[2_2]: x[2_2,2^0] + x[2_2,2^1] + x[2_2,2^2] + x[2_2,2^3]
   + x[2_2,2^4] - x[4^2,2_2] - x[5^1,2_2] = 0
 netflow[2^0]: - x[2_0,2^0] - x[2_1,2^0] - x[2_2,2^0] + x[2^0,1_0] = 0
 netflow[2^1]: - x[2_0,2^1] - x[2_1,2^1] - x[2_2,2^1] + x[2^1,1_1] = 0
 netflow[2^2]: - x[2_0,2^2] - x[2_1,2^2] - x[2_2,2^2] + x[2^2,1_2] = 0
 netflow[2^3]: - x[2_1,2^3] - x[2_2,2^3] + x[2^3,1_3] = 0
 netflow[2^4]: - x[2_2,2^4] + x[2^4,1_4] = 0
 netflow[3_0]: x[3_0,3^0] + x[3_0,3^1] + x[3_0,3^2] - x[6^0,3_0]
   - x[7^0,3_0] = 0
 netflow[3_1]: x[3_1,3^0] + x[3_1,3^1] + x[3_1,3^2] + x[3_1,3^3]
   - x[6^1,3_1] - x[7^1,3_1] = 0
 netflow[3^0]: - x[3_0,3^0] - x[3_1,3^0] + x[3^0,1_0] = 0
 netflow[3^1]: - x[3_0,3^1] - x[3_1,3^1] + x[3^1,1_1] = 0
 netflow[3^2]: - x[3_0,3^2] - x[3_1,3^2] + x[3^2,1_2] = 0
 netflow[3^3]: - x[3_1,3^3] + x[3^3,1_3] + x[3^3,1_4] = 0
 netflow[4_0]: x[4_0,4^0] + x[4_0,4^1] + x[4_0,4^2] = 1
 netflow[4^0]: - x[4_0,4^0] + x[4^0,2_0] = 0
 netflow[4^1]: - x[4_0,4^1] + x[4^1,2_1] = 0
 netflow[4^2]: - x[4_0,4^2] + x[4^2,2_2] = 0
 netflow[5_0]: x[5_0,5^0] + x[5_0,5^1] = 1
 netflow[5^0]: - x[5_0,5^0] + x[5^0,2_0] = 0
 netflow[5^1]: - x[5_0,5^1] + x[5^1,2_1] + x[5^1,2_2] = 0
 netflow[6_0]: x[6_0,6^0] + x[6_0,6^1] = 1
 netflow[6^0]: - x[6_0,6^0] + x[6^0,3_0] = 0
 netflow[6^1]: - x[6_0,6^1] + x[6^1,3_1] = 0
 netflow[7_0]: x[7_0,7^0] + x[7_0,7^1] = 1
 netflow[7^0]: - x[7_0,7^0] + x[7^0,3_0] = 0
 netflow[7^1]: - x[7_0,7^1] + x[7^1,3_1] = 0
Bounds
Binaries
 y[1_0,1^0] y[1_1,1^0] y[1_2,1^0] y[1_3,1^0] y[1_4,1^0] y[2_0,2^0]
 y[2_0,2^1] y[2_0,2^2] y[2_1,2^0] y[2_1,2^1] y[2_1,2^2] y[2_1,2^3]
 y[2_2,2^0] y[2_2,2^1] y[2_2,2^2] y[2_2,2^3] y[2_2,2^4] y[3_0,3^0]
 y[3_0,3^1] y[3_0,3^2] y[3_1,3^0] y[3_1,3^1] y[3_1,3^2] y[3_1,3^3]
 y[4_0,4^0] y[4_0,4^1] y[4_0,4^2] y[5_0,5^0] y[5_0,5^1] y[6_0,6^0]
 y[6_0,6^1] y[7_0,7^0] y[7_0,7^1]
End
